 200 20 
 39 54 58 40 57 75 50 51 6 92 87 23 
 55 56 62 21 97 95 17 10 
 19 
 2 3 4 5 6 7 8 9 10 11 12 13 
 14 15 16 17 18 19 20 
 2 
 9 16 
 14 
 1 2 4 5 6 7 11 12 13 14 15 17 
 19 20 
 10 
 2 3 4 7 11 14 15 16 17 18 
 3 
 4 16 17 
 5 
 1 3 7 13 19 
 3 
 2 13 19 
 2 
 2 16 
 20 
 1 2 3 4 5 6 7 8 9 10 11 12 
 13 14 15 16 17 18 19 20 
 19 
 1 2 3 4 6 7 8 9 10 11 12 13 
 14 15 16 17 18 19 20 
 16 
 1 3 4 5 7 8 9 10 11 12 13 15 
 16 18 19 20 
 10 
 1 2 5 9 12 14 15 16 17 20 
 9 
 3 6 7 8 9 12 13 18 20 
 8 
 1 4 6 7 9 14 16 18 
 3 
 5 15 19 
 13 
 3 5 6 8 10 11 12 13 15 16 17 18 
 19 
 2 
 7 9 
 10 
 5 8 9 10 14 15 16 17 19 20 
 4 
 4 8 9 12 
 8 
 2 3 7 10 14 15 18 19 
 17 
 2 3 4 7 8 9 10 11 12 13 14 15 
 16 17 18 19 20 
 6 
 1 9 13 14 19 20 
 3 
 3 19 20 
 7 
 5 6 10 15 16 18 19 
 16 
 1 2 3 4 5 6 7 8 9 10 11 12 
 13 14 17 19 
 18 
 1 3 4 5 6 7 8 9 10 11 12 13 
 15 16 17 18 19 20 
 20 
 1 2 3 4 5 6 7 8 9 10 11 12 
 13 14 15 16 17 18 19 20 
 19 
 1 2 4 5 6 7 8 9 10 11 12 13 
 14 15 16 17 18 19 20 
 16 
 1 2 3 4 5 6 8 9 10 11 13 15 
 16 17 18 20 
 18 
 1 2 3 5 6 7 8 9 10 11 13 14 
 15 16 17 18 19 20 
 8 
 1 4 8 9 11 14 17 19 
 18 
 1 2 3 4 5 6 8 9 10 11 12 14 
 15 16 17 18 19 20 
 13 
 1 2 4 5 6 9 10 12 13 15 16 17 
 18 
 12 
 4 5 8 9 10 11 12 13 14 16 18 20 
 20 
 1 2 3 4 5 6 7 8 9 10 11 12 
 13 14 15 16 17 18 19 20 
 10 
 3 6 7 8 11 12 13 14 16 20 
 8 
 4 5 8 9 12 13 17 20 
 19 
 1 2 3 5 6 7 8 9 10 11 12 13 
 14 15 16 17 18 19 20 
 20 
 1 2 3 4 5 6 7 8 9 10 11 12 
 13 14 15 16 17 18 19 20 
 2 
 14 16 
 8 
 1 4 6 9 11 13 19 20 
 5 
 6 10 12 14 16 
 3 
 11 15 19 
 10 
 1 2 4 6 8 9 12 15 19 20 
 9 
 1 4 6 7 8 10 12 17 19 
 16 
 1 2 3 4 5 6 9 10 11 12 13 15 
 16 17 18 20 
 2 
 8 11 
 15 
 1 2 5 6 7 8 9 10 11 12 13 14 
 15 16 17 
 4 
 1 6 14 20 
 9 
 3 4 9 10 14 15 17 18 19 
 12 
 2 5 6 8 10 11 12 15 16 17 19 20 
 9 
 3 5 7 8 12 14 15 17 18 
 19 
 2 3 4 5 6 7 8 9 10 11 12 13 
 14 15 16 17 18 19 20 
 10 
 4 5 6 8 10 11 15 16 18 20 
 2 
 8 15 
 2 
 1 16 
 11 
 1 2 4 6 8 10 11 13 16 17 19 
 9 
 1 3 10 11 12 15 18 19 20 
 20 
 1 2 3 4 5 6 7 8 9 10 11 12 
 13 14 15 16 17 18 19 20 
 20 
 1 2 3 4 5 6 7 8 9 10 11 12 
 13 14 15 16 17 18 19 20 
 19 
 2 3 4 5 6 7 8 9 10 11 12 13 
 14 15 16 17 18 19 20 
 8 
 4 5 8 13 14 17 18 20 
 5 
 2 5 8 9 14 
 3 
 2 3 8 
 17 
 1 2 3 4 5 7 8 9 10 11 12 13 
 14 15 17 18 19 
 14 
 3 4 7 8 10 11 12 14 15 16 17 18 
 19 20 
 6 
 8 11 13 17 18 20 
 16 
 1 2 3 5 6 7 8 9 10 12 13 14 
 15 17 18 20 
 13 
 1 5 6 7 8 9 10 14 16 17 18 19 
 20 
 2 
 9 14 
 4 
 12 17 18 20 
 5 
 2 6 11 13 18 
 5 
 1 2 5 16 20 
 5 
 1 5 6 7 16 
 5 
 2 9 16 18 20 
 19 
 2 3 4 5 6 7 8 9 10 11 12 13 
 14 15 16 17 18 19 20 
 19 
 1 2 3 4 5 6 7 8 9 10 11 12 
 13 14 15 16 17 18 19 
 16 
 1 2 3 4 5 6 8 11 12 13 14 15 
 16 17 19 20 
 7 
 2 8 9 12 14 17 20 
 18 
 1 2 3 4 5 6 8 9 10 11 12 13 
 15 16 17 18 19 20 
 13 
 1 2 3 4 6 8 10 11 13 15 16 18 
 20 
 15 
 1 2 4 5 6 9 10 11 13 14 15 17 
 18 19 20 
 5 
 4 5 11 14 17 
 15 
 1 2 5 6 8 10 12 13 14 15 16 17 
 18 19 20 
 2 
 2 20 
 5 
 2 4 6 17 20 
 10 
 1 4 8 10 11 13 15 16 17 19 
 12 
 1 4 5 7 8 9 12 14 15 17 18 20 
 10 
 3 6 10 11 12 14 17 18 19 20 
 2 
 12 20 
 13 
 1 4 5 7 8 9 10 12 13 14 15 17 
 18 
 16 
 1 2 3 4 5 7 8 9 10 11 13 14 
 15 16 17 20 
 9 
 1 2 4 5 6 8 13 15 20 
 20 
 1 2 3 4 5 6 7 8 9 10 11 12 
 13 14 15 16 17 18 19 20 
 13 
 2 5 6 8 9 11 12 13 15 16 17 18 
 19 
 14 
 1 3 5 6 7 8 9 10 11 16 17 18 
 19 20 
 14 
 1 3 5 6 8 11 12 13 14 16 17 18 
 19 20 
 7 
 1 2 4 5 11 13 20 
 18 
 3 4 5 6 7 8 9 10 11 12 13 14 
 15 16 17 18 19 20 
 7 
 3 5 10 11 14 17 19 
 18 
 1 2 3 4 5 6 7 8 9 10 11 12 
 13 14 15 16 19 20 
 2 
 7 11 
 15 
 1 2 3 4 5 6 9 10 11 14 15 16 
 17 18 20 
 8 
 1 2 4 6 13 18 19 20 
 6 
 8 10 13 15 17 18 
 4 
 2 11 17 20 
 14 
 1 2 3 4 5 8 9 10 11 12 13 15 
 16 17 
 9 
 2 4 9 12 13 14 18 19 20 
 4 
 5 11 12 19 
 17 
 1 3 4 5 6 7 9 10 12 13 14 15 
 16 17 18 19 20 
 11 
 2 5 7 9 10 12 14 15 16 17 19 
 3 
 13 16 19 
 10 
 4 5 7 8 10 11 13 14 16 17 
 2 
 3 9 
 3 
 1 11 14 
 15 
 2 3 4 5 6 7 8 9 10 11 12 14 
 15 16 18 
 17 
 1 2 3 5 6 7 9 10 11 12 13 15 
 16 17 18 19 20 
 2 
 2 9 
 18 
 1 2 3 4 5 6 7 8 9 11 12 13 
 14 15 16 17 19 20 
 13 
 1 3 4 5 6 7 9 10 13 14 16 17 
 18 
 19 
 1 2 3 4 5 7 8 9 10 11 12 13 
 14 15 16 17 18 19 20 
 12 
 3 5 7 8 9 10 11 13 15 17 19 20 
 7 
 1 2 5 6 10 11 18 
 20 
 1 2 3 4 5 6 7 8 9 10 11 12 
 13 14 15 16 17 18 19 20 
 14 
 1 2 3 4 5 6 7 8 9 10 13 15 
 19 20 
 19 
 1 2 3 4 5 6 7 8 10 11 12 13 
 14 15 16 17 18 19 20 
 17 
 1 2 3 4 5 6 7 8 9 10 11 12 
 13 14 17 19 20 
 4 
 2 8 13 15 
 18 
 1 2 3 4 5 6 8 9 10 11 12 13 
 14 15 16 17 18 19 
 2 
 16 19 
 2 
 12 14 
 3 
 9 13 18 
 15 
 1 3 4 5 6 7 8 10 11 13 14 15 
 16 19 20 
 2 
 5 20 
 7 
 4 10 11 12 16 18 19 
 7 
 2 4 9 15 17 19 20 
 16 
 1 2 3 4 6 7 8 9 10 12 13 15 
 16 17 19 20 
 15 
 1 2 5 7 8 9 10 11 12 14 15 16 
 17 18 20 
 9 
 4 5 6 8 10 11 14 18 19 
 14 
 1 2 3 5 6 7 10 11 12 13 14 15 
 17 19 
 13 
 1 3 4 5 6 7 8 10 11 13 14 16 
 19 
 16 
 1 2 6 8 9 10 11 12 13 14 15 16 
 17 18 19 20 
 4 
 15 16 17 18 
 10 
 3 4 5 7 8 11 12 15 16 20 
 7 
 3 4 5 9 15 17 18 
 14 
 1 2 3 5 6 7 8 9 11 12 13 16 
 17 20 
 18 
 1 2 3 4 6 7 8 9 10 12 13 14 
 15 16 17 18 19 20 
 15 
 1 2 3 5 6 7 10 12 13 14 16 17 
 18 19 20 
 9 
 2 8 9 10 11 13 18 19 20 
 5 
 4 5 9 10 18 
 19 
 2 3 4 5 6 7 8 9 10 11 12 13 
 14 15 16 17 18 19 20 
 17 
 1 2 3 4 6 7 8 9 11 12 13 14 
 15 16 17 18 19 
 12 
 2 6 7 10 11 12 13 15 16 17 19 20 
 18 
 1 2 3 5 6 7 8 9 10 11 13 14 
 15 16 17 18 19 20 
 8 
 4 6 7 10 11 14 18 20 
 15 
 1 2 3 6 8 9 10 11 12 14 16 17 
 18 19 20 
 4 
 9 15 16 18 
 8 
 2 3 5 9 13 15 18 19 
 14 
 1 2 3 7 9 11 12 14 15 16 17 18 
 19 20 
 8 
 4 6 8 10 12 14 17 18 
 12 
 2 3 5 6 7 10 11 12 15 16 17 19 
 4 
 2 7 9 12 
 6 
 1 3 5 8 12 16 
 2 
 4 5 
 18 
 2 3 4 5 6 7 8 9 10 11 12 13 
 14 15 17 18 19 20 
 18 
 1 2 3 4 5 6 7 9 10 11 12 13 
 14 15 17 18 19 20 
 11 
 3 4 5 6 7 8 9 11 14 17 19 
 18 
 1 2 3 4 5 6 7 8 9 10 11 12 
 14 15 16 17 19 20 
 10 
 1 2 3 6 10 11 13 16 18 19 
 18 
 1 2 3 4 5 6 7 9 11 12 13 14 
 15 16 17 18 19 20 
 3 
 2 14 18 
 11 
 1 2 3 6 7 10 11 13 14 15 18 
 16 
 1 2 3 4 5 6 9 10 12 13 14 16 
 17 18 19 20 
 20 
 1 2 3 4 5 6 7 8 9 10 11 12 
 13 14 15 16 17 18 19 20 
 11 
 1 2 6 7 12 13 14 15 17 19 20 
 16 
 1 2 3 4 6 7 8 10 11 12 13 15 
 16 17 18 19 
 5 
 6 7 9 10 18 
 7 
 6 7 8 17 18 19 20 
 16 
 1 2 3 5 6 7 8 9 13 14 15 16 
 17 18 19 20 
 6 
 4 8 10 18 19 20 
 7 
 9 10 11 12 18 19 20 
 6 
 11 12 15 16 17 19 
 3 
 4 8 17 
 11 
 2 3 4 6 7 11 12 13 14 15 16 
 5 
 2 11 12 18 20 
 16 
 1 2 3 4 5 6 7 9 10 11 12 13 
 14 16 18 19 
 16 
 1 2 3 4 6 8 9 10 11 12 13 14 
 15 16 18 19 
 10 
 1 2 4 7 8 11 13 15 16 20 
 18 
 1 2 3 4 6 7 8 9 10 12 13 14 
 15 16 17 18 19 20 
 6 
 5 8 15 17 18 20 
 3 
 4 10 11 
 19 
 1 2 3 4 5 6 7 8 9 10 11 12 
 13 14 15 16 17 19 20 
 19 
 1 2 3 4 5 6 8 9 10 11 12 13 
 14 15 16 17 18 19 20 
 15 
 1 3 5 6 8 9 10 11 12 14 16 17 
 18 19 20 
 11 
 1 3 6 8 9 10 12 13 15 19 20 
 6 
 4 7 8 9 13 20 
 15 
 1 2 3 4 6 7 8 9 10 12 14 17 
 18 19 20 
 17 
 1 3 4 5 6 8 9 10 11 12 13 14 
 15 17 18 19 20 
 11 
 2 3 4 6 8 11 12 14 16 17 20 
 17 
 3 4 6 7 8 9 10 11 12 13 14 15 
 16 17 18 19 20 
 